NAME:  test1
TYPE: AGTSP
COMMENT: gtsp tours
DIMENSION:  61
GTSP_SETS: 13
EDGE_WEIGHT_TYPE: EXPLICIT
EDGE_WEIGHT_FORMAT: FULL_MATRIX 
EDGE_WEIGHT_SECTION
999999	0	999999	999999	999999	26458	26458	26458	26458	26450	26429	26429	26421	999999	999999	26447	26447	26447	26439	999999	26440	26440	26440	26432	999999	26436	26436	26436	26428	999999	26436	26436	26436	26428	999999	26459	26459	26459
999999	999999	0	999999	999999	26458	26458	26458	999999	999999	26429	26429	26429	26421	999999	26447	26447	26447	26447	26439	26440	26440	26440	26440	26432	26436	26436	26436	26436	26428	26436	26436	26436	26436	26428	26459	26459	26459
999999	999999	999999	0	999999	26458	26458	26458	26458	999999	26429	26429	26429	26429	26421	26447	26447	26447	26447	999999	26440	26440	26440	26440	999999	26436	26436	26436	26436	999999	26436	26436	26436	26436	999999	26459	26459	26459
999999	999999	999999	999999	0	26458	26458	26458	26458	26458	26429	26429	26429	26429	26429	26447	26447	26447	26447	26447	26440	26440	26440	26440	26440	26436	26436	26436	26436	26436	26436	26436	26436	26436	26436	26459	26459	26459
0	999999	999999	999999	999999	26458	26458	26458	26450	999999	26429	26421	999999	999999	999999	26447	26447	26439	999999	999999	26440	26440	26432	999999	999999	26436	26436	26428	999999	999999	26436	26436	26428	999999	999999	26459	26459	26459
26458	26458	26458	26458	26450	999999	0	999999	999999	999999	26470	26470	999999	999999	999999	26438	26438	26438	26430	999999	26444	26444	26444	26436	999999	26463	26463	26463	26463	26455	26476	26476	999999	999999	999999	26456	26456	26456
26458	26458	26458	999999	999999	999999	999999	0	999999	999999	26470	26470	26470	999999	999999	26438	26438	26438	26438	26430	26444	26444	26444	26444	26436	26463	26463	26463	999999	999999	26476	26476	26476	999999	999999	26456	26456	26456
26458	26458	26458	26458	999999	999999	999999	999999	0	999999	26470	26470	26470	26470	999999	26438	26438	26438	26438	999999	26444	26444	26444	26444	999999	26463	26463	26463	26463	999999	26476	26476	26476	26476	999999	26456	26456	26456
26458	26458	26458	26458	26458	999999	999999	999999	999999	0	26470	26470	26470	26470	26470	26438	26438	26438	26438	26438	26444	26444	26444	26444	26444	26463	26463	26463	26463	26463	26476	26476	26476	26476	26476	26456	26456	26456
26458	26458	26458	26450	999999	0	999999	999999	999999	999999	26470	26470	26470	26470	26462	26438	26438	26430	999999	999999	26444	26444	26436	999999	999999	26463	26463	26463	26455	999999	26476	26476	26476	26476	26468	26456	26456	26456
26429	26429	26421	999999	999999	26470	26470	999999	999999	999999	999999	0	999999	999999	999999	26458	26458	26458	26458	26450	26449	26449	26449	26441	999999	26439	26439	26439	26431	999999	26427	26427	26419	999999	999999	26467	26467	26467
26429	26429	26429	26421	999999	26470	26470	26470	999999	999999	999999	999999	0	999999	999999	26458	26458	26458	999999	999999	26449	26449	26449	26449	26441	26439	26439	26439	26439	26431	26427	26427	26427	26419	999999	26467	26467	26467
26429	26429	26429	26429	26421	26470	26470	26470	26470	999999	999999	999999	999999	0	999999	26458	26458	26458	26458	999999	26449	26449	26449	26449	999999	26439	26439	26439	26439	999999	26427	26427	26427	26427	26419	26467	26467	26467
26429	26429	26429	26429	26429	26470	26470	26470	26470	26470	999999	999999	999999	999999	0	26458	26458	26458	26458	26458	26449	26449	26449	26449	26449	26439	26439	26439	26439	26439	26427	26427	26427	26427	26427	26467	26467	26467
26429	26421	999999	999999	999999	26470	26470	26470	26470	26462	0	999999	999999	999999	999999	26458	26458	26458	26450	999999	26449	26449	26441	999999	999999	26439	26439	26431	999999	999999	26427	26419	999999	999999	999999	26467	26467	26467
26447	26447	26447	26439	999999	26438	26438	26438	26430	999999	26458	26458	26458	26458	26450	999999	0	999999	999999	999999	26446	26446	26446	26438	999999	26445	26445	26445	26437	999999	26466	26466	26466	26466	26458	26438	26438	26438
26447	26447	26447	26447	26439	26438	26438	26438	26438	26430	26458	26458	26458	999999	999999	999999	999999	0	999999	999999	26446	26446	26446	26446	26438	26445	26445	26445	26445	26437	26466	26466	26466	999999	999999	26438	26438	26438
26447	26447	26447	26447	999999	26438	26438	26438	26438	999999	26458	26458	26458	26458	999999	999999	999999	999999	0	999999	26446	26446	26446	26446	999999	26445	26445	26445	26445	999999	26466	26466	26466	26466	999999	26438	26438	26438
26447	26447	26447	26447	26447	26438	26438	26438	26438	26438	26458	26458	26458	26458	26458	999999	999999	999999	999999	0	26446	26446	26446	26446	26446	26445	26445	26445	26445	26445	26466	26466	26466	26466	26466	26438	26438	26438
26447	26447	26439	999999	999999	26438	26438	26430	999999	999999	26458	26458	26458	26450	999999	0	999999	999999	999999	999999	26446	26446	26438	999999	999999	26445	26445	26437	999999	999999	26466	26466	26466	26458	999999	26438	26438	26430
26440	26440	26440	26432	999999	26444	26444	26444	26436	999999	26449	26449	26449	26441	999999	26446	26446	26446	26438	999999	999999	0	999999	999999	999999	26454	26454	26454	26454	26446	26453	26453	26453	26453	26445	26465	26465	26465
26440	26440	26440	26440	26432	26444	26444	26444	26444	26436	26449	26449	26449	26449	26441	26446	26446	26446	26446	26438	999999	999999	0	999999	999999	26454	26454	26454	999999	999999	26453	26453	26453	999999	999999	26465	26465	26465
26440	26440	26440	26440	999999	26444	26444	26444	26444	999999	26449	26449	26449	26449	999999	26446	26446	26446	26446	999999	999999	999999	999999	0	999999	26454	26454	26454	26454	999999	26453	26453	26453	26453	999999	26465	26465	26465
26440	26440	26440	26440	26440	26444	26444	26444	26444	26444	26449	26449	26449	26449	26449	26446	26446	26446	26446	26446	999999	999999	999999	999999	0	26454	26454	26454	26454	26454	26453	26453	26453	26453	26453	26465	26465	26465
26440	26440	26432	999999	999999	26444	26444	26436	999999	999999	26449	26449	26441	999999	999999	26446	26446	26438	999999	999999	0	999999	999999	999999	999999	26454	26454	26454	26446	999999	26453	26453	26453	26445	999999	26465	26465	26465
26436	26436	26436	26428	999999	26463	26463	26463	26463	26455	26439	26439	26439	26431	999999	26445	26445	26445	26437	999999	26454	26454	26454	26454	26446	999999	0	999999	999999	999999	26448	26448	26448	26440	999999	26447	26447	26447
26436	26436	26436	26436	26428	26463	26463	26463	999999	999999	26439	26439	26439	26439	26431	26445	26445	26445	26445	26437	26454	26454	26454	999999	999999	999999	999999	0	999999	999999	26448	26448	26448	26448	26440	26447	26447	26447
26436	26436	26436	26436	999999	26463	26463	26463	26463	999999	26439	26439	26439	26439	999999	26445	26445	26445	26445	999999	26454	26454	26454	26454	999999	999999	999999	999999	0	999999	26448	26448	26448	26448	999999	26447	26447	26447
26436	26436	26436	26436	26436	26463	26463	26463	26463	26463	26439	26439	26439	26439	26439	26445	26445	26445	26445	26445	26454	26454	26454	26454	26454	999999	999999	999999	999999	0	26448	26448	26448	26448	26448	26447	26447	26447
26436	26436	26428	999999	999999	26463	26463	26463	26455	999999	26439	26439	26431	999999	999999	26445	26445	26437	999999	999999	26454	26454	26454	26446	999999	0	999999	999999	999999	999999	26448	26448	26440	999999	999999	26447	26447	26439
26436	26436	26436	26428	999999	26476	26476	999999	999999	999999	26427	26427	26419	999999	999999	26466	26466	26466	26466	26458	26453	26453	26453	26453	26445	26448	26448	26448	26440	999999	999999	0	999999	999999	999999	26476	26476	999999
26436	26436	26436	26436	26428	26476	26476	26476	999999	999999	26427	26427	26427	26419	999999	26466	26466	26466	999999	999999	26453	26453	26453	999999	999999	26448	26448	26448	26448	26440	999999	999999	0	999999	999999	26476	26476	26476
26436	26436	26436	26436	999999	26476	26476	26476	26476	999999	26427	26427	26427	26427	26419	26466	26466	26466	26466	999999	26453	26453	26453	26453	999999	26448	26448	26448	26448	999999	999999	999999	999999	0	999999	26476	26476	26476
26436	26436	26436	26436	26436	26476	26476	26476	26476	26476	26427	26427	26427	26427	26427	26466	26466	26466	26466	26466	26453	26453	26453	26453	26453	26448	26448	26448	26448	26448	999999	999999	999999	999999	0	26476	26476	26476
26436	26436	26428	999999	999999	26476	26476	26476	26476	26468	26427	26419	999999	999999	999999	26466	26466	26466	26458	999999	26453	26453	26453	26445	999999	26448	26448	26440	999999	999999	0	999999	999999	999999	999999	26476	26476	26476
26459	26459	26459	26459	26451	26456	26456	26456	26456	26448	26467	26467	26467	26467	26459	26438	26438	26438	26430	999999	26465	26465	26465	26465	26457	26447	26447	26447	26439	999999	26476	26476	999999	999999	999999	999999	0	999999
26459	26459	26459	999999	999999	26456	26456	26456	999999	999999	26467	26467	26467	999999	999999	26438	26438	26438	26438	26430	26465	26465	26465	999999	999999	26447	26447	26447	26447	26439	26476	26476	26476	999999	999999	999999	999999	0
26459	26459	26459	26459	999999	26456	26456	26456	26456	999999	26467	26467	26467	26467	999999	26438	26438	26438	26438	999999	26465	26465	26465	26465	999999	26447	26447	26447	26447	999999	26476	26476	26476	26476	999999	999999	999999	999999
GTSP_SET_SECTION:
1 1 2 3 4 5 -1
2 6 7 8 9 10 -1
3 11 12 13 14 15 -1
4 16 17 18 19 20 -1
5 21 22 23 24 25 -1
6 26 27 28 29 30 -1
7 31 32 33 34 35 -1
8 36 37 38 39 40 -1
9 41 42 43 44 45 -1
10 46 47 48 49 50 -1
11 51 52 53 54 55 -1
12 56 57 58 59 60 -1
13 61 -1
EOF